data;

param w := 34;
param n := 21;
param min_h := 34;
param max_h := 53;

set BLOCKS := 1 2 3 4 5 6 7 8 9 10 11 12 13 14 15 16 17 18 19 20 21 ;

param:	width	height :=
	1	12	34
	2	3	34
	3	3	25
	4	3	22
	5	3	21
	6	4	14
	7	4	11
	8	3	14
	9	3	13
	10	3	12
	11	3	11
	12	3	10
	13	3	9
	14	3	8
	15	3	7
	16	4	5
	17	3	6
	18	4	4
	19	3	5
	20	3	4
	21	3	3;